3 
4  50 
5  10 31 44 
6  01 17 33 48 
7  03 18 33 48 
8  03 18 33 48 
9  03 19 34 49 
10  04 19 33 48 
11  03 18 33 48 
12  03 18 33 48 
13  03 18 33 48 
14  03 18 33 48 
15  03 18 33 48 
16  03 18 33 48 
17  03 18 33 48 
18  03 18 33 48 
19  03 18 33 48 
20  03 21 36 51 
21  05 21 36 51 
22  06 21 36 50 
23  08 
0 
